25 40
1 2 1
1 6 5
2 3 2
2 7 2
3 4 1
3 8 2
4 5 2
4 9 5
5 10 3
6 7 5
6 11 3
7 8 5
7 12 1
8 9 1
8 13 2
9 10 5
9 14 2
10 15 5
11 12 4
11 16 4
12 13 4
12 17 4
13 14 5
13 18 5
14 15 4
14 19 1
15 20 2
16 17 5
16 21 4
17 18 1
17 22 4
18 19 2
18 23 3
19 20 3
19 24 3
20 25 1
21 22 1
22 23 1
23 24 3
24 25 4
